p cnf 48 366
1 7 13 19 25 31 37 43 0
2 8 14 20 26 32 38 44 0
3 9 15 21 27 33 39 45 0
4 10 16 22 28 34 40 46 0
5 11 17 23 29 35 41 47 0
6 12 18 24 30 36 42 48 0
-1 -2 0
-1 -3 0
-1 -4 0
-1 -5 0
-1 -6 0
-2 -3 0
-2 -4 0
-2 -5 0
-2 -6 0
-3 -4 0
-3 -5 0
-3 -6 0
-4 -5 0
-4 -6 0
-5 -6 0
-7 -8 0
-7 -9 0
-7 -10 0
-7 -11 0
-7 -12 0
-8 -9 0
-8 -10 0
-8 -11 0
-8 -12 0
-9 -10 0
-9 -11 0
-9 -12 0
-10 -11 0
-10 -12 0
-11 -12 0
-13 -14 0
-13 -15 0
-13 -16 0
-13 -17 0
-13 -18 0
-14 -15 0
-14 -16 0
-14 -17 0
-14 -18 0
-15 -16 0
-15 -17 0
-15 -18 0
-16 -17 0
-16 -18 0
-17 -18 0
-19 -20 0
-19 -21 0
-19 -22 0
-19 -23 0
-19 -24 0
-20 -21 0
-20 -22 0
-20 -23 0
-20 -24 0
-21 -22 0
-21 -23 0
-21 -24 0
-22 -23 0
-22 -24 0
-23 -24 0
-25 -26 0
-25 -27 0
-25 -28 0
-25 -29 0
-25 -30 0
-26 -27 0
-26 -28 0
-26 -29 0
-26 -30 0
-27 -28 0
-27 -29 0
-27 -30 0
-28 -29 0
-28 -30 0
-29 -30 0
-31 -32 0
-31 -33 0
-31 -34 0
-31 -35 0
-31 -36 0
-32 -33 0
-32 -34 0
-32 -35 0
-32 -36 0
-33 -34 0
-33 -35 0
-33 -36 0
-34 -35 0
-34 -36 0
-35 -36 0
-37 -38 0
-37 -39 0
-37 -40 0
-37 -41 0
-37 -42 0
-38 -39 0
-38 -40 0
-38 -41 0
-38 -42 0
-39 -40 0
-39 -41 0
-39 -42 0
-40 -41 0
-40 -42 0
-41 -42 0
-43 -44 0
-43 -45 0
-43 -46 0
-43 -47 0
-43 -48 0
-44 -45 0
-44 -46 0
-44 -47 0
-44 -48 0
-45 -46 0
-45 -47 0
-45 -48 0
-46 -47 0
-46 -48 0
-47 -48 0
-1 -20 0
-1 -21 0
-1 -22 0
-1 -23 0
-1 -24 0
-2 -19 0
-2 -21 0
-2 -22 0
-2 -23 0
-2 -24 0
-3 -19 0
-3 -20 0
-3 -22 0
-3 -23 0
-3 -24 0
-4 -19 0
-4 -20 0
-4 -21 0
-4 -23 0
-4 -24 0
-5 -19 0
-5 -20 0
-5 -21 0
-5 -22 0
-5 -24 0
-6 -19 0
-6 -20 0
-6 -21 0
-6 -22 0
-6 -23 0
-1 -38 0
-1 -39 0
-1 -40 0
-1 -41 0
-1 -42 0
-2 -37 0
-2 -39 0
-2 -40 0
-2 -41 0
-2 -42 0
-3 -37 0
-3 -38 0
-3 -40 0
-3 -41 0
-3 -42 0
-4 -37 0
-4 -38 0
-4 -39 0
-4 -41 0
-4 -42 0
-5 -37 0
-5 -38 0
-5 -39 0
-5 -40 0
-5 -42 0
-6 -37 0
-6 -38 0
-6 -39 0
-6 -40 0
-6 -41 0
-7 -14 0
-7 -15 0
-7 -16 0
-7 -17 0
-7 -18 0
-8 -13 0
-8 -15 0
-8 -16 0
-8 -17 0
-8 -18 0
-9 -13 0
-9 -14 0
-9 -16 0
-9 -17 0
-9 -18 0
-10 -13 0
-10 -14 0
-10 -15 0
-10 -17 0
-10 -18 0
-11 -13 0
-11 -14 0
-11 -15 0
-11 -16 0
-11 -18 0
-12 -13 0
-12 -14 0
-12 -15 0
-12 -16 0
-12 -17 0
-7 -38 0
-7 -39 0
-7 -40 0
-7 -41 0
-7 -42 0
-8 -37 0
-8 -39 0
-8 -40 0
-8 -41 0
-8 -42 0
-9 -37 0
-9 -38 0
-9 -40 0
-9 -41 0
-9 -42 0
-10 -37 0
-10 -38 0
-10 -39 0
-10 -41 0
-10 -42 0
-11 -37 0
-11 -38 0
-11 -39 0
-11 -40 0
-11 -42 0
-12 -37 0
-12 -38 0
-12 -39 0
-12 -40 0
-12 -41 0
-7 -44 0
-7 -45 0
-7 -46 0
-7 -47 0
-7 -48 0
-8 -43 0
-8 -45 0
-8 -46 0
-8 -47 0
-8 -48 0
-9 -43 0
-9 -44 0
-9 -46 0
-9 -47 0
-9 -48 0
-10 -43 0
-10 -44 0
-10 -45 0
-10 -47 0
-10 -48 0
-11 -43 0
-11 -44 0
-11 -45 0
-11 -46 0
-11 -48 0
-12 -43 0
-12 -44 0
-12 -45 0
-12 -46 0
-12 -47 0
-13 -38 0
-13 -39 0
-13 -40 0
-13 -41 0
-13 -42 0
-14 -37 0
-14 -39 0
-14 -40 0
-14 -41 0
-14 -42 0
-15 -37 0
-15 -38 0
-15 -40 0
-15 -41 0
-15 -42 0
-16 -37 0
-16 -38 0
-16 -39 0
-16 -41 0
-16 -42 0
-17 -37 0
-17 -38 0
-17 -39 0
-17 -40 0
-17 -42 0
-18 -37 0
-18 -38 0
-18 -39 0
-18 -40 0
-18 -41 0
-19 -32 0
-19 -33 0
-19 -34 0
-19 -35 0
-19 -36 0
-20 -31 0
-20 -33 0
-20 -34 0
-20 -35 0
-20 -36 0
-21 -31 0
-21 -32 0
-21 -34 0
-21 -35 0
-21 -36 0
-22 -31 0
-22 -32 0
-22 -33 0
-22 -35 0
-22 -36 0
-23 -31 0
-23 -32 0
-23 -33 0
-23 -34 0
-23 -36 0
-24 -31 0
-24 -32 0
-24 -33 0
-24 -34 0
-24 -35 0
-25 -38 0
-25 -39 0
-25 -40 0
-25 -41 0
-25 -42 0
-26 -37 0
-26 -39 0
-26 -40 0
-26 -41 0
-26 -42 0
-27 -37 0
-27 -38 0
-27 -40 0
-27 -41 0
-27 -42 0
-28 -37 0
-28 -38 0
-28 -39 0
-28 -41 0
-28 -42 0
-29 -37 0
-29 -38 0
-29 -39 0
-29 -40 0
-29 -42 0
-30 -37 0
-30 -38 0
-30 -39 0
-30 -40 0
-30 -41 0
